GLPSOL: GLPK LP/MIP Solver, v4.65
Parameter(s) specified in the command line:
 -m transportation-fixed-costs.mod -d transportation-original.dat --log transportation-original.log
Reading model section from transportation-fixed-costs.mod...
40 lines were read
Reading data section from transportation-original.dat...
38 lines were read
Checking (line 12)...
Generating Availability_at_Supply_Points...
Generating Requirement_at_Demand_Points...
Generating Zero_Transport_If_Fix_Cost_Not_Paid...
Generating Total_Costs...
Model has been successfully generated
GLPK Integer Optimizer, v4.65
35 rows, 48 columns, 120 non-zeros
24 integer variables, all of which are binary
Preprocessing...
34 rows, 48 columns, 96 non-zeros
24 integer variables, all of which are binary
Scaling...
 A: min|aij| =  1.000e+00  max|aij| =  1.700e+02  ratio =  1.700e+02
GM: min|aij| =  1.000e+00  max|aij| =  1.000e+00  ratio =  1.000e+00
EQ: min|aij| =  1.000e+00  max|aij| =  1.000e+00  ratio =  1.000e+00
2N: min|aij| =  7.031e-01  max|aij| =  1.328e+00  ratio =  1.889e+00
Constructing initial basis...
Size of triangular part is 34
Solving LP relaxation...
GLPK Simplex Optimizer, v4.65
34 rows, 48 columns, 96 non-zeros
      0: obj =   0.000000000e+00 inf =   7.500e+02 (6)
     33: obj =   4.810000000e+03 inf =   0.000e+00 (0)
*    62: obj =   2.700000000e+03 inf =   0.000e+00 (0)
OPTIMAL LP SOLUTION FOUND
Integer optimization begins...
Long-step dual simplex will be used
+    62: mip =     not found yet >=              -inf        (1; 0)
+    68: >>>>>   2.710000000e+03 >=   2.700000000e+03   0.4% (5; 0)
+    74: >>>>>   2.700000000e+03 >=   2.700000000e+03   0.0% (3; 6)
+    74: mip =   2.700000000e+03 >=     tree is empty   0.0% (0; 13)
INTEGER OPTIMAL SOLUTION FOUND
Time used:   0.0 secs
Memory used: 0.2 Mb (225899 bytes)
Optimal cost: 2700.
From S1 to D1, transport 10 amount for 50 (unit cost: 5, fixed: 0).
From S1 to D5, transport 90 amount for 450 (unit cost: 5, fixed: 0).
From S2 to D1, transport 110 amount for 110 (unit cost: 1, fixed: 0).
From S2 to D2, transport 140 amount for 280 (unit cost: 2, fixed: 0).
From S3 to D3, transport 170 amount for 170 (unit cost: 1, fixed: 0).
From S3 to D5, transport 20 amount for 80 (unit cost: 4, fixed: 0).
From S4 to D4, transport 90 amount for 720 (unit cost: 8, fixed: 0).
From S4 to D6, transport 120 amount for 840 (unit cost: 7, fixed: 0).
Model has been successfully processed
